p cnf 515 1561
1 0
-2 0
-3 0
-4 0
-5 0
-6 0
-7 0
-8 0
-9 0
-10 0
-11 0
1 -12 0
-1 12 0
13 14 0
15 14 0
16 14 0
17 14 0
18 14 0
19 14 0
20 14 0
21 14 0
22 14 0
23 14 0
24 14 0
25 14 0
-26 0
-2 14 -27 0
2 -14 -27 0
27 -14 -2 0
2 14 27 0
-27 0
13 28 0
15 28 0
16 28 0
17 28 0
18 28 0
20 28 0
21 28 0
22 28 0
23 28 0
24 28 0
25 28 0
-29 0
-30 28 -31 0
30 -28 -31 0
31 -28 -30 0
30 28 31 0
-31 0
13 32 0
15 32 0
16 32 0
17 32 0
18 32 0
21 32 0
22 32 0
23 32 0
24 32 0
25 32 0
-33 0
-34 32 -35 0
34 -32 -35 0
35 -32 -34 0
34 32 35 0
-35 0
13 36 0
15 36 0
16 36 0
17 36 0
18 36 0
22 36 0
23 36 0
24 36 0
25 36 0
-37 0
-38 36 -39 0
38 -36 -39 0
39 -36 -38 0
38 36 39 0
-39 0
15 40 0
16 40 0
17 40 0
18 40 0
22 40 0
23 40 0
24 40 0
25 40 0
-41 0
-42 40 -43 0
42 -40 -43 0
43 -40 -42 0
42 40 43 0
-43 0
15 44 0
16 44 0
17 44 0
18 44 0
23 44 0
24 44 0
25 44 0
-45 0
-46 44 -47 0
46 -44 -47 0
47 -44 -46 0
46 44 47 0
-47 0
-48 44 -49 0
48 -44 -49 0
49 -44 -48 0
48 44 49 0
-49 0
-50 44 -51 0
50 -44 -51 0
51 -44 -50 0
50 44 51 0
-51 0
-52 44 -53 0
52 -44 -53 0
53 -44 -52 0
52 44 53 0
-53 0
17 54 0
25 54 0
18 54 0
15 54 0
23 54 0
24 54 0
16 54 0
-55 0
-56 54 -57 0
56 -54 -57 0
57 -54 -56 0
56 54 57 0
-57 0
-58 44 -59 0
58 -44 -59 0
59 -44 -58 0
58 44 59 0
-59 0
-60 44 -61 0
60 -44 -61 0
61 -44 -60 0
60 44 61 0
-61 0
62 63 0
64 63 0
65 63 0
66 63 0
67 63 0
68 63 0
69 63 0
70 63 0
71 63 0
72 63 0
73 63 0
74 63 0
-75 0
-3 63 -76 0
3 -63 -76 0
76 -63 -3 0
3 63 76 0
-76 0
64 77 0
65 77 0
66 77 0
67 77 0
68 77 0
69 77 0
70 77 0
71 77 0
72 77 0
73 77 0
74 77 0
-78 0
-79 77 -80 0
79 -77 -80 0
80 -77 -79 0
79 77 80 0
-80 0
65 81 0
66 81 0
67 81 0
68 81 0
69 81 0
70 81 0
71 81 0
72 81 0
73 81 0
74 81 0
-82 0
-83 81 -84 0
83 -81 -84 0
84 -81 -83 0
83 81 84 0
-84 0
66 85 0
67 85 0
68 85 0
69 85 0
70 85 0
71 85 0
72 85 0
73 85 0
74 85 0
-86 0
-87 85 -88 0
87 -85 -88 0
88 -85 -87 0
87 85 88 0
-88 0
67 89 0
68 89 0
69 89 0
70 89 0
71 89 0
72 89 0
73 89 0
74 89 0
-90 0
-91 89 -92 0
91 -89 -92 0
92 -89 -91 0
91 89 92 0
-92 0
68 93 0
69 93 0
70 93 0
71 93 0
72 93 0
73 93 0
74 93 0
-94 0
-95 93 -96 0
95 -93 -96 0
96 -93 -95 0
95 93 96 0
-96 0
69 97 0
70 97 0
71 97 0
72 97 0
73 97 0
74 97 0
-98 0
-99 97 -100 0
99 -97 -100 0
100 -97 -99 0
99 97 100 0
-100 0
70 101 0
71 101 0
72 101 0
74 101 0
69 101 0
73 101 0
-102 0
-103 101 -104 0
103 -101 -104 0
104 -101 -103 0
103 101 104 0
-104 0
-105 101 -106 0
105 -101 -106 0
106 -101 -105 0
105 101 106 0
-106 0
-107 101 -108 0
107 -101 -108 0
108 -101 -107 0
107 101 108 0
-108 0
-109 101 -110 0
109 -101 -110 0
110 -101 -109 0
109 101 110 0
-110 0
-111 101 -112 0
111 -101 -112 0
112 -101 -111 0
111 101 112 0
-112 0
113 114 0
115 114 0
116 114 0
117 114 0
118 114 0
119 114 0
120 114 0
121 114 0
122 114 0
123 114 0
124 114 0
125 114 0
-126 0
-4 114 -127 0
4 -114 -127 0
127 -114 -4 0
4 114 127 0
-127 0
115 128 0
116 128 0
117 128 0
118 128 0
119 128 0
120 128 0
121 128 0
122 128 0
123 128 0
124 128 0
125 128 0
-129 0
-130 128 -131 0
130 -128 -131 0
131 -128 -130 0
130 128 131 0
-131 0
116 132 0
117 132 0
118 132 0
119 132 0
120 132 0
121 132 0
122 132 0
123 132 0
124 132 0
125 132 0
-133 0
-134 132 -135 0
134 -132 -135 0
135 -132 -134 0
134 132 135 0
-135 0
117 136 0
118 136 0
119 136 0
120 136 0
121 136 0
122 136 0
123 136 0
124 136 0
125 136 0
-137 0
-138 136 -139 0
138 -136 -139 0
139 -136 -138 0
138 136 139 0
-139 0
118 140 0
119 140 0
120 140 0
121 140 0
122 140 0
123 140 0
124 140 0
125 140 0
-141 0
-142 140 -143 0
142 -140 -143 0
143 -140 -142 0
142 140 143 0
-143 0
119 144 0
120 144 0
121 144 0
123 144 0
125 144 0
118 144 0
122 144 0
124 144 0
-145 0
-146 144 -147 0
146 -144 -147 0
147 -144 -146 0
146 144 147 0
-147 0
-148 144 -149 0
148 -144 -149 0
149 -144 -148 0
148 144 149 0
-149 0
-150 144 -151 0
150 -144 -151 0
151 -144 -150 0
150 144 151 0
-151 0
-152 144 -153 0
152 -144 -153 0
153 -144 -152 0
152 144 153 0
-153 0
-154 144 -155 0
154 -144 -155 0
155 -144 -154 0
154 144 155 0
-155 0
-156 144 -157 0
156 -144 -157 0
157 -144 -156 0
156 144 157 0
-157 0
-158 144 -159 0
158 -144 -159 0
159 -144 -158 0
158 144 159 0
-159 0
160 161 0
162 161 0
163 161 0
164 161 0
165 161 0
166 161 0
167 161 0
168 161 0
169 161 0
170 161 0
171 161 0
172 161 0
173 161 0
-174 0
-5 161 -175 0
5 -161 -175 0
175 -161 -5 0
5 161 175 0
-175 0
162 176 0
163 176 0
164 176 0
165 176 0
166 176 0
167 176 0
168 176 0
169 176 0
170 176 0
171 176 0
172 176 0
173 176 0
-177 0
-178 176 -179 0
178 -176 -179 0
179 -176 -178 0
178 176 179 0
-179 0
163 180 0
164 180 0
165 180 0
166 180 0
167 180 0
168 180 0
169 180 0
170 180 0
171 180 0
172 180 0
173 180 0
-181 0
-182 180 -183 0
182 -180 -183 0
183 -180 -182 0
182 180 183 0
-183 0
164 184 0
165 184 0
166 184 0
167 184 0
168 184 0
169 184 0
170 184 0
171 184 0
172 184 0
173 184 0
-185 0
-186 184 -187 0
186 -184 -187 0
187 -184 -186 0
186 184 187 0
-187 0
165 188 0
166 188 0
167 188 0
168 188 0
169 188 0
170 188 0
171 188 0
172 188 0
173 188 0
-189 0
-190 188 -191 0
190 -188 -191 0
191 -188 -190 0
190 188 191 0
-191 0
166 192 0
167 192 0
168 192 0
169 192 0
170 192 0
171 192 0
172 192 0
173 192 0
-193 0
-194 192 -195 0
194 -192 -195 0
195 -192 -194 0
194 192 195 0
-195 0
169 196 0
171 196 0
166 196 0
167 196 0
168 196 0
170 196 0
172 196 0
173 196 0
-197 0
-198 196 -199 0
198 -196 -199 0
199 -196 -198 0
198 196 199 0
-199 0
-200 196 -201 0
200 -196 -201 0
201 -196 -200 0
200 196 201 0
-201 0
-202 196 -203 0
202 -196 -203 0
203 -196 -202 0
202 196 203 0
-203 0
-204 196 -205 0
204 -196 -205 0
205 -196 -204 0
204 196 205 0
-205 0
-206 196 -207 0
206 -196 -207 0
207 -196 -206 0
206 196 207 0
-207 0
-208 196 -209 0
208 -196 -209 0
209 -196 -208 0
208 196 209 0
-209 0
-210 196 -211 0
210 -196 -211 0
211 -196 -210 0
210 196 211 0
-211 0
119 212 0
120 212 0
121 212 0
123 212 0
125 212 0
213 212 0
214 212 0
118 212 0
122 212 0
124 212 0
215 212 0
216 212 0
217 212 0
218 212 0
-219 0
-6 212 -220 0
6 -212 -220 0
220 -212 -6 0
6 212 220 0
-220 0
119 221 0
120 221 0
121 221 0
123 221 0
125 221 0
214 221 0
118 221 0
122 221 0
124 221 0
215 221 0
216 221 0
217 221 0
218 221 0
-222 0
-223 221 -224 0
223 -221 -224 0
224 -221 -223 0
223 221 224 0
-224 0
119 225 0
120 225 0
121 225 0
123 225 0
125 225 0
118 225 0
122 225 0
124 225 0
215 225 0
216 225 0
217 225 0
218 225 0
-226 0
-227 225 -228 0
227 -225 -228 0
228 -225 -227 0
227 225 228 0
-228 0
119 229 0
120 229 0
121 229 0
123 229 0
125 229 0
118 229 0
122 229 0
124 229 0
216 229 0
217 229 0
218 229 0
-230 0
-231 229 -232 0
231 -229 -232 0
232 -229 -231 0
231 229 232 0
-232 0
119 233 0
120 233 0
121 233 0
123 233 0
125 233 0
118 233 0
122 233 0
124 233 0
217 233 0
218 233 0
-234 0
-235 233 -236 0
235 -233 -236 0
236 -233 -235 0
235 233 236 0
-236 0
119 237 0
120 237 0
121 237 0
123 237 0
125 237 0
118 237 0
122 237 0
124 237 0
218 237 0
-238 0
-239 237 -240 0
239 -237 -240 0
240 -237 -239 0
239 237 240 0
-240 0
241 242 0
243 242 0
244 242 0
245 242 0
246 242 0
247 242 0
248 242 0
249 242 0
250 242 0
251 242 0
252 242 0
253 242 0
254 242 0
255 242 0
-256 0
-7 242 -257 0
7 -242 -257 0
257 -242 -7 0
7 242 257 0
-257 0
243 258 0
244 258 0
245 258 0
246 258 0
247 258 0
248 258 0
249 258 0
250 258 0
251 258 0
252 258 0
253 258 0
254 258 0
255 258 0
-259 0
-260 258 -261 0
260 -258 -261 0
261 -258 -260 0
260 258 261 0
-261 0
244 262 0
245 262 0
246 262 0
247 262 0
248 262 0
249 262 0
250 262 0
251 262 0
252 262 0
253 262 0
254 262 0
255 262 0
-263 0
-264 262 -265 0
264 -262 -265 0
265 -262 -264 0
264 262 265 0
-265 0
245 266 0
246 266 0
247 266 0
248 266 0
249 266 0
250 266 0
251 266 0
252 266 0
253 266 0
254 266 0
255 266 0
-267 0
-268 266 -269 0
268 -266 -269 0
269 -266 -268 0
268 266 269 0
-269 0
246 270 0
247 270 0
248 270 0
249 270 0
250 270 0
251 270 0
252 270 0
253 270 0
254 270 0
255 270 0
-271 0
-272 270 -273 0
272 -270 -273 0
273 -270 -272 0
272 270 273 0
-273 0
247 274 0
248 274 0
249 274 0
250 274 0
251 274 0
252 274 0
253 274 0
254 274 0
255 274 0
-275 0
-276 274 -277 0
276 -274 -277 0
277 -274 -276 0
276 274 277 0
-277 0
248 278 0
249 278 0
250 278 0
251 278 0
252 278 0
253 278 0
254 278 0
255 278 0
-279 0
-280 278 -281 0
280 -278 -281 0
281 -278 -280 0
280 278 281 0
-281 0
248 282 0
249 282 0
251 282 0
252 282 0
254 282 0
250 282 0
253 282 0
255 282 0
-283 0
-284 282 -285 0
284 -282 -285 0
285 -282 -284 0
284 282 285 0
-285 0
-286 282 -287 0
286 -282 -287 0
287 -282 -286 0
286 282 287 0
-287 0
-288 282 -289 0
288 -282 -289 0
289 -282 -288 0
288 282 289 0
-289 0
-290 282 -291 0
290 -282 -291 0
291 -282 -290 0
290 282 291 0
-291 0
-292 282 -293 0
292 -282 -293 0
293 -282 -292 0
292 282 293 0
-293 0
-294 282 -295 0
294 -282 -295 0
295 -282 -294 0
294 282 295 0
-295 0
-296 282 -297 0
296 -282 -297 0
297 -282 -296 0
296 282 297 0
-297 0
298 299 0
300 299 0
301 299 0
302 299 0
303 299 0
304 299 0
305 299 0
306 299 0
307 299 0
308 299 0
309 299 0
310 299 0
311 299 0
-312 0
-8 299 -313 0
8 -299 -313 0
313 -299 -8 0
8 299 313 0
-313 0
300 314 0
301 314 0
302 314 0
303 314 0
304 314 0
305 314 0
306 314 0
307 314 0
308 314 0
309 314 0
310 314 0
311 314 0
-315 0
-316 314 -317 0
316 -314 -317 0
317 -314 -316 0
316 314 317 0
-317 0
301 318 0
302 318 0
303 318 0
304 318 0
305 318 0
306 318 0
307 318 0
308 318 0
309 318 0
310 318 0
311 318 0
-319 0
-320 318 -321 0
320 -318 -321 0
321 -318 -320 0
320 318 321 0
-321 0
302 322 0
303 322 0
304 322 0
305 322 0
306 322 0
307 322 0
308 322 0
309 322 0
310 322 0
311 322 0
-323 0
-324 322 -325 0
324 -322 -325 0
325 -322 -324 0
324 322 325 0
-325 0
303 326 0
304 326 0
305 326 0
306 326 0
307 326 0
308 326 0
309 326 0
310 326 0
311 326 0
-327 0
-328 326 -329 0
328 -326 -329 0
329 -326 -328 0
328 326 329 0
-329 0
304 330 0
305 330 0
306 330 0
307 330 0
308 330 0
309 330 0
310 330 0
311 330 0
-331 0
-332 330 -333 0
332 -330 -333 0
333 -330 -332 0
332 330 333 0
-333 0
305 334 0
306 334 0
307 334 0
308 334 0
309 334 0
310 334 0
311 334 0
-335 0
-336 334 -337 0
336 -334 -337 0
337 -334 -336 0
336 334 337 0
-337 0
306 338 0
307 338 0
308 338 0
309 338 0
310 338 0
311 338 0
-339 0
-340 338 -341 0
340 -338 -341 0
341 -338 -340 0
340 338 341 0
-341 0
306 342 0
311 342 0
307 342 0
308 342 0
309 342 0
310 342 0
-343 0
-344 342 -345 0
344 -342 -345 0
345 -342 -344 0
344 342 345 0
-345 0
-346 342 -347 0
346 -342 -347 0
347 -342 -346 0
346 342 347 0
-347 0
-348 342 -349 0
348 -342 -349 0
349 -342 -348 0
348 342 349 0
-349 0
-350 342 -351 0
350 -342 -351 0
351 -342 -350 0
350 342 351 0
-351 0
-352 342 -353 0
352 -342 -353 0
353 -342 -352 0
352 342 353 0
-353 0
354 355 0
356 355 0
357 355 0
358 355 0
359 355 0
360 355 0
361 355 0
362 355 0
363 355 0
364 355 0
365 355 0
366 355 0
367 355 0
368 355 0
369 355 0
-370 0
-9 355 -371 0
9 -355 -371 0
371 -355 -9 0
9 355 371 0
-371 0
356 372 0
357 372 0
358 372 0
359 372 0
360 372 0
361 372 0
362 372 0
363 372 0
364 372 0
365 372 0
366 372 0
367 372 0
368 372 0
369 372 0
-373 0
-374 372 -375 0
374 -372 -375 0
375 -372 -374 0
374 372 375 0
-375 0
357 376 0
358 376 0
359 376 0
360 376 0
361 376 0
362 376 0
363 376 0
364 376 0
365 376 0
366 376 0
367 376 0
368 376 0
369 376 0
-377 0
-378 376 -379 0
378 -376 -379 0
379 -376 -378 0
378 376 379 0
-379 0
358 380 0
359 380 0
360 380 0
361 380 0
362 380 0
363 380 0
364 380 0
365 380 0
366 380 0
367 380 0
368 380 0
369 380 0
-381 0
-382 380 -383 0
382 -380 -383 0
383 -380 -382 0
382 380 383 0
-383 0
359 384 0
360 384 0
361 384 0
362 384 0
363 384 0
364 384 0
365 384 0
366 384 0
367 384 0
368 384 0
369 384 0
-385 0
-386 384 -387 0
386 -384 -387 0
387 -384 -386 0
386 384 387 0
-387 0
360 388 0
361 388 0
362 388 0
363 388 0
364 388 0
365 388 0
366 388 0
367 388 0
368 388 0
369 388 0
-389 0
-390 388 -391 0
390 -388 -391 0
391 -388 -390 0
390 388 391 0
-391 0
361 392 0
362 392 0
363 392 0
364 392 0
365 392 0
366 392 0
367 392 0
368 392 0
369 392 0
-393 0
-394 392 -395 0
394 -392 -395 0
395 -392 -394 0
394 392 395 0
-395 0
362 396 0
363 396 0
364 396 0
365 396 0
366 396 0
367 396 0
368 396 0
369 396 0
-397 0
-398 396 -399 0
398 -396 -399 0
399 -396 -398 0
398 396 399 0
-399 0
362 400 0
365 400 0
366 400 0
367 400 0
368 400 0
363 400 0
364 400 0
369 400 0
-401 0
-402 400 -403 0
402 -400 -403 0
403 -400 -402 0
402 400 403 0
-403 0
-404 400 -405 0
404 -400 -405 0
405 -400 -404 0
404 400 405 0
-405 0
-406 400 -407 0
406 -400 -407 0
407 -400 -406 0
406 400 407 0
-407 0
-408 400 -409 0
408 -400 -409 0
409 -400 -408 0
408 400 409 0
-409 0
-410 400 -411 0
410 -400 -411 0
411 -400 -410 0
410 400 411 0
-411 0
-412 400 -413 0
412 -400 -413 0
413 -400 -412 0
412 400 413 0
-413 0
-414 400 -415 0
414 -400 -415 0
415 -400 -414 0
414 400 415 0
-415 0
306 416 0
311 416 0
417 416 0
418 416 0
419 416 0
420 416 0
307 416 0
308 416 0
309 416 0
310 416 0
421 416 0
422 416 0
-423 0
-10 416 -424 0
10 -416 -424 0
424 -416 -10 0
10 416 424 0
-424 0
306 425 0
311 425 0
418 425 0
419 425 0
420 425 0
307 425 0
308 425 0
309 425 0
310 425 0
421 425 0
422 425 0
-426 0
-427 425 -428 0
427 -425 -428 0
428 -425 -427 0
427 425 428 0
-428 0
306 429 0
311 429 0
419 429 0
420 429 0
307 429 0
308 429 0
309 429 0
310 429 0
421 429 0
422 429 0
-430 0
-431 429 -432 0
431 -429 -432 0
432 -429 -431 0
431 429 432 0
-432 0
306 433 0
311 433 0
419 433 0
420 433 0
307 433 0
308 433 0
309 433 0
310 433 0
422 433 0
-434 0
-435 433 -436 0
435 -433 -436 0
436 -433 -435 0
435 433 436 0
-436 0
306 437 0
311 437 0
419 437 0
420 437 0
307 437 0
308 437 0
309 437 0
310 437 0
-438 0
-439 437 -440 0
439 -437 -440 0
440 -437 -439 0
439 437 440 0
-440 0
306 441 0
311 441 0
420 441 0
307 441 0
308 441 0
309 441 0
310 441 0
-442 0
-443 441 -444 0
443 -441 -444 0
444 -441 -443 0
443 441 444 0
-444 0
445 446 0
447 446 0
448 446 0
449 446 0
450 446 0
451 446 0
452 446 0
453 446 0
454 446 0
455 446 0
456 446 0
457 446 0
458 446 0
459 446 0
460 446 0
-461 0
-11 446 -462 0
11 -446 -462 0
462 -446 -11 0
11 446 462 0
-462 0
447 463 0
448 463 0
449 463 0
450 463 0
451 463 0
452 463 0
453 463 0
454 463 0
455 463 0
456 463 0
457 463 0
458 463 0
459 463 0
460 463 0
-464 0
-465 463 -466 0
465 -463 -466 0
466 -463 -465 0
465 463 466 0
-466 0
448 467 0
449 467 0
450 467 0
451 467 0
452 467 0
453 467 0
454 467 0
455 467 0
456 467 0
457 467 0
458 467 0
459 467 0
460 467 0
-468 0
-469 467 -470 0
469 -467 -470 0
470 -467 -469 0
469 467 470 0
-470 0
449 471 0
450 471 0
451 471 0
452 471 0
453 471 0
454 471 0
455 471 0
456 471 0
457 471 0
458 471 0
459 471 0
460 471 0
-472 0
-473 471 -474 0
473 -471 -474 0
474 -471 -473 0
473 471 474 0
-474 0
450 475 0
451 475 0
452 475 0
453 475 0
454 475 0
455 475 0
456 475 0
457 475 0
458 475 0
459 475 0
460 475 0
-476 0
-477 475 -478 0
477 -475 -478 0
478 -475 -477 0
477 475 478 0
-478 0
451 479 0
452 479 0
453 479 0
454 479 0
455 479 0
456 479 0
457 479 0
458 479 0
459 479 0
460 479 0
-480 0
-481 479 -482 0
481 -479 -482 0
482 -479 -481 0
481 479 482 0
-482 0
452 483 0
453 483 0
454 483 0
455 483 0
456 483 0
457 483 0
458 483 0
459 483 0
460 483 0
-484 0
-485 483 -486 0
485 -483 -486 0
486 -483 -485 0
485 483 486 0
-486 0
453 487 0
454 487 0
455 487 0
456 487 0
457 487 0
458 487 0
459 487 0
460 487 0
-488 0
-489 487 -490 0
489 -487 -490 0
490 -487 -489 0
489 487 490 0
-490 0
453 491 0
455 491 0
457 491 0
460 491 0
454 491 0
456 491 0
458 491 0
459 491 0
-492 0
-493 491 -494 0
493 -491 -494 0
494 -491 -493 0
493 491 494 0
-494 0
-495 491 -496 0
495 -491 -496 0
496 -491 -495 0
495 491 496 0
-496 0
-497 491 -498 0
497 -491 -498 0
498 -491 -497 0
497 491 498 0
-498 0
-499 491 -500 0
499 -491 -500 0
500 -491 -499 0
499 491 500 0
-500 0
-501 491 -502 0
501 -491 -502 0
502 -491 -501 0
501 491 502 0
-502 0
-503 491 -504 0
503 -491 -504 0
504 -491 -503 0
503 491 504 0
-504 0
-505 491 -506 0
505 -491 -506 0
506 -491 -505 0
505 491 506 0
-506 0
12 -507 0
19 -507 0
20 -507 0
21 -507 0
-507 -13 0
22 -507 0
-507 -15 0
23 -507 0
24 -507 0
-507 -16 0
-507 -17 0
25 -507 0
-507 -18 0
-507 -62 0
64 -507 0
65 -507 0
-507 -66 0
67 -507 0
68 -507 0
69 -507 0
-507 -70 0
-507 -71 0
-507 -72 0
73 -507 0
-507 -74 0
113 -507 0
-507 -115 0
-507 -116 0
117 -507 0
118 -507 0
-507 -119 0
-507 -120 0
-507 -121 0
122 -507 0
-507 -123 0
124 -507 0
-507 -125 0
-507 -160 0
-507 -162 0
-507 -163 0
-507 -164 0
-507 -165 0
166 -507 0
167 -507 0
168 -507 0
-507 -169 0
170 -507 0
-507 -171 0
172 -507 0
173 -507 0
-507 -213 0
-507 -214 0
215 -507 0
216 -507 0
217 -507 0
218 -507 0
241 -507 0
243 -507 0
244 -507 0
245 -507 0
-507 -246 0
-507 -247 0
-507 -248 0
-507 -249 0
250 -507 0
-507 -251 0
-507 -252 0
253 -507 0
-507 -254 0
255 -507 0
298 -507 0
-507 -300 0
301 -507 0
302 -507 0
303 -507 0
304 -507 0
305 -507 0
-507 -306 0
307 -507 0
308 -507 0
309 -507 0
310 -507 0
-507 -311 0
-507 -354 0
-507 -356 0
357 -507 0
358 -507 0
-507 -359 0
360 -507 0
-507 -361 0
-507 -362 0
363 -507 0
364 -507 0
-507 -365 0
-507 -366 0
-507 -367 0
-507 -368 0
369 -507 0
-507 -417 0
-507 -418 0
421 -507 0
422 -507 0
-507 -419 0
-507 -420 0
-507 -445 0
447 -507 0
-507 -448 0
-507 -449 0
450 -507 0
-507 -451 0
452 -507 0
-507 -453 0
454 -507 0
-507 -455 0
456 -507 0
-507 -457 0
458 -507 0
459 -507 0
-507 -460 0
507 0
-508 0
-509 0
-510 0
-511 0
-512 0
-513 0
-514 0
-515 0
